
Gurobi 9.0.0 (linux64, Matlab) logging started Tue Feb  4 11:37:49 2020


Gurobi 9.0.0 (linux64, Matlab) logging started Tue Feb  4 11:37:50 2020


Gurobi 9.0.0 (linux64, Matlab) logging started Tue Feb  4 11:37:50 2020


Gurobi 9.0.0 (linux64, Matlab) logging started Tue Feb  4 11:37:53 2020


Gurobi 9.0.0 (linux64, Matlab) logging started Tue Feb  4 11:37:55 2020


Gurobi 9.0.0 (linux64, Matlab) logging started Tue Feb  4 11:37:57 2020


Gurobi 9.0.0 (linux64, Matlab) logging started Tue Feb  4 11:37:59 2020


Gurobi 8.1.0 (linux64, Matlab) logging started Tue Feb  4 11:39:39 2020


Gurobi 8.1.0 (linux64, Matlab) logging started Tue Feb  4 11:39:40 2020


Gurobi 8.1.0 (linux64, Matlab) logging started Tue Feb  4 11:39:40 2020


Gurobi 8.1.0 (linux64, Matlab) logging started Tue Feb  4 11:39:43 2020


Gurobi 8.1.0 (linux64, Matlab) logging started Tue Feb  4 11:39:45 2020


Gurobi 8.1.0 (linux64, Matlab) logging started Tue Feb  4 11:39:47 2020


Gurobi 8.1.0 (linux64, Matlab) logging started Tue Feb  4 11:39:49 2020


Gurobi 8.1.0 (linux64, Matlab) logging started Tue Feb  4 11:39:53 2020


Gurobi 8.1.0 (linux64, Matlab) logging started Tue Feb  4 11:39:55 2020


Gurobi 8.1.0 (linux64, Matlab) logging started Tue Feb  4 11:39:58 2020


Gurobi 8.1.0 (linux64, Matlab) logging started Tue Feb  4 11:40:00 2020


Gurobi 8.1.1 (mac64, Matlab) logging started Tue Feb  4 14:01:14 2020


Gurobi 8.1.1 (mac64, Matlab) logging started Tue Feb  4 14:01:16 2020


Gurobi 8.1.1 (mac64, Matlab) logging started Tue Feb  4 14:01:16 2020


Gurobi 8.1.1 (mac64, Matlab) logging started Tue Feb  4 14:01:19 2020


Gurobi 8.1.1 (mac64, Matlab) logging started Tue Feb  4 14:01:22 2020


Gurobi 8.1.1 (mac64, Matlab) logging started Tue Feb  4 14:01:23 2020


Gurobi 8.1.1 (mac64, Matlab) logging started Tue Feb  4 14:01:26 2020


Gurobi 8.1.1 (mac64, Matlab) logging started Tue Feb  4 14:01:29 2020


Gurobi 8.1.1 (mac64, Matlab) logging started Tue Feb  4 14:01:31 2020


Gurobi 8.1.1 (mac64, Matlab) logging started Tue Feb  4 14:01:34 2020


Gurobi 8.1.1 (mac64, Matlab) logging started Tue Feb  4 14:01:36 2020


Gurobi 8.1.1 (mac64, Matlab) logging started Tue Feb  4 14:03:09 2020


Gurobi 8.1.1 (mac64, Matlab) logging started Tue Feb  4 14:03:10 2020


Gurobi 8.1.1 (mac64, Matlab) logging started Tue Feb  4 14:03:11 2020


Gurobi 8.1.1 (mac64, Matlab) logging started Tue Feb  4 14:03:14 2020


Gurobi 8.1.1 (mac64, Matlab) logging started Tue Feb  4 14:03:16 2020


Gurobi 8.1.1 (mac64, Matlab) logging started Tue Feb  4 14:03:18 2020


Gurobi 8.1.1 (mac64, Matlab) logging started Tue Feb  4 14:03:21 2020


Gurobi 8.1.1 (mac64, Matlab) logging started Tue Feb  4 14:03:23 2020


Gurobi 8.1.1 (mac64, Matlab) logging started Tue Feb  4 14:03:26 2020


Gurobi 8.1.1 (mac64, Matlab) logging started Tue Feb  4 14:03:29 2020


Gurobi 8.1.1 (mac64, Matlab) logging started Tue Feb  4 14:03:31 2020


Gurobi 8.1.0 (linux64, Matlab) logging started Wed Feb  5 13:27:55 2020


Gurobi 8.1.0 (linux64, Matlab) logging started Wed Feb  5 13:27:56 2020


Gurobi 8.1.0 (linux64, Matlab) logging started Wed Feb  5 13:27:57 2020


Gurobi 8.1.0 (linux64, Matlab) logging started Wed Feb  5 13:28:01 2020


Gurobi 8.1.0 (linux64, Matlab) logging started Wed Feb  5 13:28:03 2020


Gurobi 8.1.0 (linux64, Matlab) logging started Wed Feb  5 13:28:06 2020


Gurobi 8.1.0 (linux64, Matlab) logging started Wed Feb  5 13:28:10 2020


Gurobi 8.1.0 (linux64, Matlab) logging started Wed Feb  5 13:28:14 2020


Gurobi 8.1.0 (linux64, Matlab) logging started Wed Feb  5 13:28:17 2020


Gurobi 8.1.0 (linux64, Matlab) logging started Wed Feb  5 13:28:22 2020


Gurobi 8.1.0 (linux64, Matlab) logging started Wed Feb  5 13:28:25 2020


Gurobi 8.1.0 (linux64, Matlab) logging started Wed Feb  5 13:29:35 2020


Gurobi 8.1.0 (linux64, Matlab) logging started Wed Feb  5 13:29:35 2020


Gurobi 8.1.0 (linux64, Matlab) logging started Wed Feb  5 13:29:36 2020


Gurobi 8.1.0 (linux64, Matlab) logging started Wed Feb  5 13:30:07 2020


Gurobi 8.1.0 (linux64, Matlab) logging started Wed Feb  5 13:30:08 2020


Gurobi 8.1.0 (linux64, Matlab) logging started Wed Feb  5 13:30:09 2020


Gurobi 8.1.0 (linux64, Matlab) logging started Wed Feb  5 13:30:12 2020


Gurobi 8.1.0 (linux64, Matlab) logging started Wed Feb  5 13:30:17 2020


Gurobi 8.1.0 (linux64, Matlab) logging started Wed Feb  5 13:30:21 2020


Gurobi 8.1.0 (linux64, Matlab) logging started Wed Feb  5 13:30:28 2020


Gurobi 8.1.0 (linux64, Matlab) logging started Wed Feb  5 13:30:32 2020


Gurobi 8.1.0 (linux64, Matlab) logging started Wed Feb  5 13:30:34 2020


Gurobi 8.1.0 (linux64, Matlab) logging started Wed Feb  5 13:30:37 2020


Gurobi 8.1.0 (linux64, Matlab) logging started Wed Feb  5 13:30:38 2020


Gurobi 8.1.0 (linux64, Matlab) logging started Wed Feb  5 13:30:41 2020


Gurobi 8.1.0 (linux64, Matlab) logging started Wed Feb  5 13:30:43 2020


Gurobi 8.1.0 (linux64, Matlab) logging started Wed Feb  5 14:00:41 2020


Gurobi 8.1.0 (linux64, Matlab) logging started Wed Feb  5 14:00:42 2020


Gurobi 8.1.0 (linux64, Matlab) logging started Wed Feb  5 14:00:42 2020


Gurobi 8.1.0 (linux64, Matlab) logging started Wed Feb  5 14:00:46 2020


Gurobi 8.1.0 (linux64, Matlab) logging started Wed Feb  5 14:00:48 2020


Gurobi 8.1.0 (linux64, Matlab) logging started Wed Feb  5 14:00:50 2020


Gurobi 8.1.0 (linux64, Matlab) logging started Wed Feb  5 14:00:52 2020


Gurobi 8.1.0 (linux64, Matlab) logging started Wed Feb  5 14:00:56 2020


Gurobi 8.1.0 (linux64, Matlab) logging started Wed Feb  5 14:00:58 2020


Gurobi 8.1.0 (linux64, Matlab) logging started Wed Feb  5 14:01:01 2020


Gurobi 8.1.0 (linux64, Matlab) logging started Wed Feb  5 14:01:04 2020


Gurobi 8.1.0 (linux64, Matlab) logging started Wed Feb  5 14:09:34 2020


Gurobi 8.1.0 (linux64, Matlab) logging started Wed Feb  5 14:09:34 2020


Gurobi 8.1.0 (linux64, Matlab) logging started Wed Feb  5 14:09:35 2020


Gurobi 8.1.0 (linux64, Matlab) logging started Wed Feb  5 14:09:38 2020


Gurobi 8.1.0 (linux64, Matlab) logging started Wed Feb  5 14:09:40 2020


Gurobi 8.1.0 (linux64, Matlab) logging started Wed Feb  5 14:09:42 2020


Gurobi 8.1.0 (linux64, Matlab) logging started Wed Feb  5 14:09:45 2020


Gurobi 8.1.0 (linux64, Matlab) logging started Wed Feb  5 14:09:48 2020


Gurobi 8.1.0 (linux64, Matlab) logging started Wed Feb  5 14:09:50 2020


Gurobi 8.1.0 (linux64, Matlab) logging started Wed Feb  5 14:09:53 2020


Gurobi 8.1.0 (linux64, Matlab) logging started Wed Feb  5 14:09:56 2020


Gurobi 8.1.0 (linux64, Matlab) logging started Wed Feb  5 14:10:35 2020


Gurobi 8.1.0 (linux64, Matlab) logging started Wed Feb  5 14:10:37 2020


Gurobi 8.1.0 (linux64, Matlab) logging started Wed Feb  5 14:10:37 2020


Gurobi 8.1.0 (linux64, Matlab) logging started Wed Feb  5 14:10:41 2020


Gurobi 8.1.0 (linux64, Matlab) logging started Wed Feb  5 14:10:45 2020


Gurobi 8.1.0 (linux64, Matlab) logging started Wed Feb  5 14:10:52 2020


Gurobi 8.1.0 (linux64, Matlab) logging started Wed Feb  5 14:10:55 2020


Gurobi 8.1.0 (linux64, Matlab) logging started Wed Feb  5 14:11:01 2020


Gurobi 8.1.0 (linux64, Matlab) logging started Wed Feb  5 14:11:05 2020


Gurobi 8.1.0 (linux64, Matlab) logging started Wed Feb  5 14:11:47 2020


Gurobi 8.1.0 (linux64, Matlab) logging started Wed Feb  5 14:11:48 2020


Gurobi 8.1.0 (linux64, Matlab) logging started Wed Feb  5 14:11:49 2020


Gurobi 8.1.0 (linux64, Matlab) logging started Wed Feb  5 14:11:52 2020


Gurobi 8.1.0 (linux64, Matlab) logging started Wed Feb  5 14:12:00 2020


Gurobi 8.1.0 (linux64, Matlab) logging started Wed Feb  5 14:12:02 2020


Gurobi 8.1.0 (linux64, Matlab) logging started Wed Feb  5 14:12:07 2020


Gurobi 8.1.0 (linux64, Matlab) logging started Wed Feb  5 14:12:48 2020


Gurobi 8.1.0 (linux64, Matlab) logging started Wed Feb  5 14:12:51 2020


Gurobi 8.1.0 (linux64, Matlab) logging started Wed Feb  5 14:12:52 2020


Gurobi 8.1.0 (linux64, Matlab) logging started Wed Feb  5 14:12:57 2020


Gurobi 8.1.0 (linux64, Matlab) logging started Wed Feb  5 14:13:05 2020


Gurobi 8.1.0 (linux64, Matlab) logging started Wed Feb  5 14:13:08 2020


Gurobi 8.1.0 (linux64, Matlab) logging started Wed Feb  5 14:13:25 2020


Gurobi 8.1.0 (linux64, Matlab) logging started Wed Feb  5 14:13:28 2020


Gurobi 8.1.0 (linux64, Matlab) logging started Wed Feb  5 14:13:34 2020


Gurobi 8.1.0 (linux64, Matlab) logging started Wed Feb  5 14:14:16 2020


Gurobi 8.1.0 (linux64, Matlab) logging started Wed Feb  5 14:14:17 2020


Gurobi 8.1.0 (linux64, Matlab) logging started Wed Feb  5 14:14:17 2020


Gurobi 8.1.0 (linux64, Matlab) logging started Wed Feb  5 14:14:21 2020


Gurobi 8.1.0 (linux64, Matlab) logging started Wed Feb  5 14:14:31 2020


Gurobi 8.1.0 (linux64, Matlab) logging started Wed Feb  5 14:14:33 2020


Gurobi 8.1.0 (linux64, Matlab) logging started Wed Feb  5 14:14:42 2020


Gurobi 8.1.0 (linux64, Matlab) logging started Wed Feb  5 14:15:19 2020


Gurobi 8.1.0 (linux64, Matlab) logging started Wed Feb  5 14:15:20 2020


Gurobi 8.1.0 (linux64, Matlab) logging started Wed Feb  5 14:15:20 2020


Gurobi 8.1.0 (linux64, Matlab) logging started Wed Feb  5 14:15:24 2020


Gurobi 8.1.0 (linux64, Matlab) logging started Wed Feb  5 14:15:34 2020


Gurobi 8.1.0 (linux64, Matlab) logging started Wed Feb  5 14:15:37 2020


Gurobi 8.1.0 (linux64, Matlab) logging started Wed Feb  5 14:15:43 2020


Gurobi 8.1.0 (linux64, Matlab) logging started Wed Feb  5 14:15:47 2020


Gurobi 8.1.0 (linux64, Matlab) logging started Wed Feb  5 14:15:52 2020


Gurobi 8.1.0 (linux64, Matlab) logging started Wed Feb  5 14:16:36 2020


Gurobi 8.1.0 (linux64, Matlab) logging started Wed Feb  5 14:16:36 2020


Gurobi 8.1.0 (linux64, Matlab) logging started Wed Feb  5 14:16:37 2020


Gurobi 8.1.0 (linux64, Matlab) logging started Wed Feb  5 14:16:57 2020


Gurobi 8.1.0 (linux64, Matlab) logging started Wed Feb  5 14:16:58 2020


Gurobi 8.1.0 (linux64, Matlab) logging started Wed Feb  5 14:16:58 2020


Gurobi 8.1.0 (linux64, Matlab) logging started Wed Feb  5 14:17:01 2020


Gurobi 8.1.0 (linux64, Matlab) logging started Wed Feb  5 14:17:11 2020


Gurobi 8.1.0 (linux64, Matlab) logging started Wed Feb  5 14:17:13 2020


Gurobi 8.1.0 (linux64, Matlab) logging started Wed Feb  5 14:17:15 2020


Gurobi 9.0.0 (linux64, Matlab) logging started Wed Feb 26 11:04:30 2020


Gurobi 9.0.0 (linux64, Matlab) logging started Wed Feb 26 11:04:31 2020


Gurobi 9.0.0 (linux64, Matlab) logging started Wed Feb 26 11:04:32 2020


Gurobi 9.0.0 (linux64, Matlab) logging started Wed Feb 26 11:04:34 2020


Gurobi 9.0.0 (linux64, Matlab) logging started Wed Feb 26 11:04:36 2020


Gurobi 9.0.0 (linux64, Matlab) logging started Wed Feb 26 11:04:38 2020


Gurobi 9.0.0 (linux64, Matlab) logging started Wed Feb 26 11:04:39 2020


Gurobi 9.0.0 (linux64, Matlab) logging started Wed Feb 26 11:04:41 2020


Gurobi 9.0.0 (linux64, Matlab) logging started Wed Feb 26 11:04:44 2020


Gurobi 9.0.0 (linux64, Matlab) logging started Wed Feb 26 11:05:21 2020


Gurobi 9.0.0 (linux64, Matlab) logging started Wed Feb 26 11:05:21 2020


Gurobi 9.0.0 (linux64, Matlab) logging started Wed Feb 26 11:05:24 2020


Gurobi 9.0.0 (linux64, Matlab) logging started Wed Feb 26 11:05:27 2020


Gurobi 9.0.0 (linux64, Matlab) logging started Wed Feb 26 11:05:29 2020


Gurobi 9.0.0 (linux64, Matlab) logging started Wed Feb 26 11:05:33 2020


Gurobi 9.0.0 (linux64, Matlab) logging started Wed Feb 26 11:05:36 2020


Gurobi 9.0.0 (linux64, Matlab) logging started Wed Feb 26 11:05:40 2020


Gurobi 9.0.0 (linux64, Matlab) logging started Wed Feb 26 11:05:44 2020


Gurobi 9.0.0 (linux64, Matlab) logging started Wed Feb 26 11:05:49 2020


Gurobi 9.0.0 (linux64, Matlab) logging started Wed Feb 26 11:05:52 2020


Gurobi 9.0.0 (linux64, Matlab) logging started Wed Feb 26 11:05:56 2020


Gurobi 9.0.0 (linux64, Matlab) logging started Wed Feb 26 11:06:00 2020


Gurobi 9.0.0 (linux64, Matlab) logging started Wed Feb 26 11:06:38 2020


Gurobi 9.0.0 (linux64, Matlab) logging started Wed Feb 26 11:06:39 2020


Gurobi 9.0.0 (linux64, Matlab) logging started Wed Feb 26 11:06:39 2020


Gurobi 9.0.0 (linux64, Matlab) logging started Wed Feb 26 11:06:43 2020


Gurobi 9.0.0 (linux64, Matlab) logging started Wed Feb 26 11:06:47 2020


Gurobi 9.0.0 (linux64, Matlab) logging started Wed Feb 26 11:06:49 2020


Gurobi 9.0.0 (linux64, Matlab) logging started Wed Feb 26 11:06:54 2020


Gurobi 9.0.0 (linux64, Matlab) logging started Wed Feb 26 11:06:58 2020


Gurobi 9.0.0 (linux64, Matlab) logging started Wed Feb 26 11:07:02 2020


Gurobi 9.0.0 (linux64, Matlab) logging started Wed Feb 26 11:07:41 2020


Gurobi 9.0.0 (linux64, Matlab) logging started Wed Feb 26 11:07:42 2020


Gurobi 9.0.0 (linux64, Matlab) logging started Wed Feb 26 11:07:43 2020


Gurobi 9.0.0 (linux64, Matlab) logging started Wed Feb 26 11:07:48 2020


Gurobi 9.0.0 (linux64, Matlab) logging started Wed Feb 26 11:07:55 2020


Gurobi 9.0.0 (linux64, Matlab) logging started Wed Feb 26 11:07:58 2020


Gurobi 9.0.0 (linux64, Matlab) logging started Wed Feb 26 11:08:04 2020


Gurobi 9.0.0 (linux64, Matlab) logging started Wed Feb 26 11:08:09 2020


Gurobi 9.0.0 (linux64, Matlab) logging started Wed Feb 26 11:08:15 2020


Gurobi 9.0.0 (linux64, Matlab) logging started Wed Feb 26 11:08:54 2020


Gurobi 9.0.0 (linux64, Matlab) logging started Wed Feb 26 11:08:55 2020


Gurobi 9.0.0 (linux64, Matlab) logging started Wed Feb 26 11:08:55 2020


Gurobi 9.0.0 (linux64, Matlab) logging started Wed Feb 26 11:08:57 2020


Gurobi 9.0.0 (linux64, Matlab) logging started Wed Feb 26 11:09:00 2020


Gurobi 9.0.0 (linux64, Matlab) logging started Wed Feb 26 11:09:02 2020


Gurobi 9.0.0 (linux64, Matlab) logging started Wed Feb 26 11:09:05 2020


Gurobi 9.0.0 (linux64, Matlab) logging started Wed Feb 26 11:09:42 2020


Gurobi 9.0.0 (linux64, Matlab) logging started Wed Feb 26 11:09:43 2020


Gurobi 9.0.0 (linux64, Matlab) logging started Wed Feb 26 11:09:43 2020


Gurobi 9.0.0 (linux64, Matlab) logging started Wed Feb 26 11:09:46 2020


Gurobi 9.0.0 (linux64, Matlab) logging started Wed Feb 26 11:09:56 2020


Gurobi 9.0.0 (linux64, Matlab) logging started Wed Feb 26 11:09:59 2020


Gurobi 9.0.0 (linux64, Matlab) logging started Wed Feb 26 11:10:06 2020


Gurobi 9.0.0 (linux64, Matlab) logging started Wed Feb 26 11:10:09 2020


Gurobi 9.0.0 (linux64, Matlab) logging started Wed Feb 26 11:10:13 2020


Gurobi 9.0.0 (linux64, Matlab) logging started Wed Feb 26 11:10:57 2020


Gurobi 9.0.0 (linux64, Matlab) logging started Wed Feb 26 11:10:57 2020


Gurobi 9.0.0 (linux64, Matlab) logging started Wed Feb 26 11:10:58 2020


Gurobi 9.0.0 (linux64, Matlab) logging started Wed Feb 26 11:11:17 2020


Gurobi 9.0.0 (linux64, Matlab) logging started Wed Feb 26 11:11:17 2020


Gurobi 9.0.0 (linux64, Matlab) logging started Wed Feb 26 11:11:18 2020


Gurobi 9.0.0 (linux64, Matlab) logging started Wed Feb 26 11:11:20 2020


Gurobi 9.0.0 (linux64, Matlab) logging started Wed Feb 26 11:11:24 2020


Gurobi 9.0.0 (linux64, Matlab) logging started Wed Feb 26 11:11:26 2020


Gurobi 9.0.0 (linux64, Matlab) logging started Wed Feb 26 11:11:27 2020


Gurobi 9.0.0 (linux64, Matlab) logging started Wed Feb 26 11:11:29 2020


Gurobi 9.0.0 (linux64, Matlab) logging started Wed Feb 26 11:11:30 2020


Gurobi 9.0.0 (linux64, Matlab) logging started Wed Feb 26 11:11:32 2020


Gurobi 9.0.0 (linux64, Matlab) logging started Wed Feb 26 11:11:33 2020


Gurobi 9.0.0 (linux64, Matlab) logging started Wed Feb 26 11:11:35 2020


Gurobi 9.0.0 (linux64, Matlab) logging started Wed Feb 26 11:11:36 2020


Gurobi 8.1.1 (mac64, Matlab) logging started Thu Mar 12 14:26:50 2020


Gurobi 8.1.1 (mac64, Matlab) logging started Thu Mar 12 14:26:50 2020


Gurobi 8.1.1 (mac64, Matlab) logging started Thu Mar 12 14:26:51 2020


Gurobi 8.1.1 (mac64, Matlab) logging started Thu Mar 12 14:26:54 2020


Gurobi 8.1.1 (mac64, Matlab) logging started Thu Mar 12 14:26:56 2020


Gurobi 8.1.1 (mac64, Matlab) logging started Thu Mar 12 14:26:57 2020


Gurobi 8.1.1 (mac64, Matlab) logging started Thu Mar 12 14:27:00 2020


Gurobi 8.1.1 (mac64, Matlab) logging started Thu Mar 12 14:27:02 2020


Gurobi 8.1.1 (mac64, Matlab) logging started Thu Mar 12 14:27:05 2020


Gurobi 8.1.1 (mac64, Matlab) logging started Thu Mar 12 14:27:07 2020


Gurobi 8.1.1 (mac64, Matlab) logging started Thu Mar 12 14:27:10 2020


Gurobi 8.1.1 (mac64, Matlab) logging started Thu Mar 12 14:28:29 2020


Gurobi 8.1.1 (mac64, Matlab) logging started Thu Mar 12 14:28:30 2020


Gurobi 8.1.1 (mac64, Matlab) logging started Thu Mar 12 14:28:30 2020


Gurobi 8.1.1 (mac64, Matlab) logging started Thu Mar 12 14:28:33 2020


Gurobi 8.1.1 (mac64, Matlab) logging started Thu Mar 12 14:28:35 2020


Gurobi 8.1.1 (mac64, Matlab) logging started Thu Mar 12 14:28:37 2020


Gurobi 8.1.1 (mac64, Matlab) logging started Thu Mar 12 14:28:39 2020


Gurobi 8.1.1 (mac64, Matlab) logging started Thu Mar 12 14:28:44 2020


Gurobi 8.1.1 (mac64, Matlab) logging started Thu Mar 12 14:28:48 2020


Gurobi 8.1.1 (mac64, Matlab) logging started Thu Mar 12 14:28:50 2020


Gurobi 8.1.1 (mac64, Matlab) logging started Thu Mar 12 14:28:53 2020


Gurobi 8.1.1 (mac64, Matlab) logging started Thu Mar 12 14:29:28 2020


Gurobi 8.1.1 (mac64, Matlab) logging started Thu Mar 12 14:29:29 2020


Gurobi 8.1.1 (mac64, Matlab) logging started Thu Mar 12 14:29:30 2020


Gurobi 8.1.1 (mac64, Matlab) logging started Thu Mar 12 14:29:34 2020


Gurobi 8.1.1 (mac64, Matlab) logging started Thu Mar 12 14:29:38 2020


Gurobi 8.1.1 (mac64, Matlab) logging started Thu Mar 12 14:29:43 2020


Gurobi 8.1.1 (mac64, Matlab) logging started Thu Mar 12 14:29:48 2020


Gurobi 8.1.1 (mac64, Matlab) logging started Thu Mar 12 14:29:53 2020


Gurobi 8.1.1 (mac64, Matlab) logging started Thu Mar 12 14:29:58 2020


Gurobi 8.1.1 (mac64, Matlab) logging started Thu Mar 12 14:30:02 2020


Gurobi 8.1.1 (mac64, Matlab) logging started Thu Mar 12 14:30:11 2020


Gurobi 8.1.1 (mac64, Matlab) logging started Thu Mar 12 14:30:50 2020


Gurobi 8.1.1 (mac64, Matlab) logging started Thu Mar 12 14:30:50 2020


Gurobi 8.1.1 (mac64, Matlab) logging started Thu Mar 12 14:30:51 2020


Gurobi 8.1.1 (mac64, Matlab) logging started Thu Mar 12 14:30:55 2020


Gurobi 8.1.1 (mac64, Matlab) logging started Thu Mar 12 14:31:04 2020


Gurobi 8.1.1 (mac64, Matlab) logging started Thu Mar 12 14:31:08 2020


Gurobi 8.1.1 (mac64, Matlab) logging started Thu Mar 12 14:31:13 2020


Gurobi 8.1.1 (mac64, Matlab) logging started Thu Mar 12 14:31:51 2020


Gurobi 8.1.1 (mac64, Matlab) logging started Thu Mar 12 14:31:51 2020


Gurobi 8.1.1 (mac64, Matlab) logging started Thu Mar 12 14:31:52 2020


Gurobi 8.1.1 (mac64, Matlab) logging started Thu Mar 12 14:32:00 2020


Gurobi 8.1.1 (mac64, Matlab) logging started Thu Mar 12 14:32:06 2020


Gurobi 8.1.1 (mac64, Matlab) logging started Thu Mar 12 14:32:10 2020


Gurobi 8.1.1 (mac64, Matlab) logging started Thu Mar 12 14:32:15 2020


Gurobi 8.1.1 (mac64, Matlab) logging started Thu Mar 12 14:32:20 2020


Gurobi 8.1.1 (mac64, Matlab) logging started Thu Mar 12 14:32:29 2020


Gurobi 8.1.1 (mac64, Matlab) logging started Thu Mar 12 14:33:07 2020


Gurobi 8.1.1 (mac64, Matlab) logging started Thu Mar 12 14:33:08 2020


Gurobi 8.1.1 (mac64, Matlab) logging started Thu Mar 12 14:33:09 2020


Gurobi 8.1.1 (mac64, Matlab) logging started Thu Mar 12 14:33:14 2020


Gurobi 8.1.1 (mac64, Matlab) logging started Thu Mar 12 14:33:17 2020


Gurobi 8.1.1 (mac64, Matlab) logging started Thu Mar 12 14:33:19 2020


Gurobi 8.1.1 (mac64, Matlab) logging started Thu Mar 12 14:33:23 2020


Gurobi 8.1.1 (mac64, Matlab) logging started Thu Mar 12 14:33:25 2020


Gurobi 8.1.1 (mac64, Matlab) logging started Thu Mar 12 14:33:31 2020


Gurobi 8.1.1 (mac64, Matlab) logging started Thu Mar 12 14:33:35 2020


Gurobi 8.1.1 (mac64, Matlab) logging started Thu Mar 12 14:33:44 2020


Gurobi 8.1.1 (mac64, Matlab) logging started Thu Mar 12 14:34:19 2020


Gurobi 8.1.1 (mac64, Matlab) logging started Thu Mar 12 14:34:20 2020


Gurobi 8.1.1 (mac64, Matlab) logging started Thu Mar 12 14:34:21 2020


Gurobi 8.1.1 (mac64, Matlab) logging started Thu Mar 12 14:34:24 2020


Gurobi 8.1.1 (mac64, Matlab) logging started Thu Mar 12 14:34:32 2020


Gurobi 8.1.1 (mac64, Matlab) logging started Thu Mar 12 14:34:35 2020


Gurobi 8.1.1 (mac64, Matlab) logging started Thu Mar 12 14:34:44 2020


Gurobi 8.1.1 (mac64, Matlab) logging started Thu Mar 12 14:35:33 2020


Gurobi 8.1.1 (mac64, Matlab) logging started Thu Mar 12 14:35:34 2020


Gurobi 8.1.1 (mac64, Matlab) logging started Thu Mar 12 14:35:34 2020


Gurobi 8.1.1 (mac64, Matlab) logging started Thu Mar 12 14:35:53 2020


Gurobi 8.1.1 (mac64, Matlab) logging started Thu Mar 12 14:35:53 2020


Gurobi 8.1.1 (mac64, Matlab) logging started Thu Mar 12 14:35:54 2020


Gurobi 8.1.1 (mac64, Matlab) logging started Thu Mar 12 14:35:57 2020


Gurobi 8.1.1 (mac64, Matlab) logging started Thu Mar 12 14:35:59 2020


Gurobi 8.1.1 (mac64, Matlab) logging started Thu Mar 12 14:36:02 2020


Gurobi 8.1.1 (mac64, Matlab) logging started Thu Mar 12 14:36:04 2020


Gurobi 8.1.1 (mac64, Matlab) logging started Thu Mar 12 14:36:07 2020


Gurobi 8.1.1 (mac64, Matlab) logging started Thu Mar 12 14:36:08 2020

